
     Program PWSCF v.7.5 starts on  5Sep2026 at  4: 4:40 

     This program is part of the open-source Quantum ESPRESSO suite
     for quantum simulation of materials; please cite
         "P. Giannozzi et al., J. Phys.:Condens. Matter 21 395502 (2009);
         "P. Giannozzi et al., J. Phys.:Condens. Matter 29 465901 (2017);
         "P. Giannozzi et al., J. Chem. Phys. 152 154105 (2020);
          URL http://www.quantum-espresso.org", 
     in publications or presentations arising from this work. More details at
     http://www.quantum-espresso.org/quote

     Parallel version (MPI), running on     4 processors

     MPI processes distributed on     1 nodes
     1615 MiB available memory on the printing compute node when the environment starts

     Reading input from /home/schlafer/Quantum/gr.vc-relax.in

     Current dimensions of program PWSCF are:
     Max number of different atomic species (ntypx) = 10
     Max number of k-points (npk) =  40000
     Max angular momentum in pseudopotentials (lmaxx) =  4
     file C.pbe-n-kjpaw_psl.1.0.0.UPF: wavefunction(s)  2S 2P renormalized

     R & G space division:  proc/nbgrp/npool/nimage =       4
     Subspace diagonalization in iterative solution of the eigenvalue problem:
     a serial algorithm will be used


     Parallelization info
     --------------------
     sticks:   dense  smooth     PW     G-vecs:    dense   smooth      PW
     Min         256      86     27                27480     5308     925
     Max         257      88     28                27493     5316     934
     Sum        1027     349    109               109955    21249    3713

     Using Slab Decomposition



     bravais-lattice index     =            4
     lattice parameter (alat)  =       4.5353  a.u.
     unit-cell volume          =     336.6276 (a.u.)^3
     number of atoms/cell      =            2
     number of atomic types    =            1
     number of electrons       =         8.00
     number of Kohn-Sham states=            8
     kinetic-energy cutoff     =      60.0000  Ry
     charge density cutoff     =     720.0000  Ry
     scf convergence threshold =      1.0E-08
     mixing beta               =       0.7000
     number of iterations used =            8  plain     mixing
     energy convergence thresh.=      1.0E-04
     force convergence thresh. =      1.0E-05
     press convergence thresh. =      5.0E-01
     Exchange-correlation= SLA  PW   PBX  PBC
                           (   1   4   3   4   0   0   0)
     nstep                     =           50


     celldm(1)=   4.535343  celldm(2)=   0.000000  celldm(3)=   4.166667
     celldm(4)=   0.000000  celldm(5)=   0.000000  celldm(6)=   0.000000

     crystal axes: (cart. coord. in units of alat)
               a(1) = (   1.000000   0.000000   0.000000 )  
               a(2) = (  -0.500000   0.866025   0.000000 )  
               a(3) = (   0.000000   0.000000   4.166667 )  

     reciprocal axes: (cart. coord. in units 2 pi/alat)
               b(1) = (  1.000000  0.577350 -0.000000 )  
               b(2) = (  0.000000  1.154701  0.000000 )  
               b(3) = (  0.000000 -0.000000  0.240000 )  


     PseudoPot. # 1 for C  read from file:
     /home/schlafer/Quantum/pseudo/C.pbe-n-kjpaw_psl.1.0.0.UPF
     MD5 check sum: 5f16ad9a65e90284d1d834d4ab3b0f7d
     Pseudo is Projector augmented-wave + core cor, Zval =  4.0
     Generated using &quot;atomic&quot; code by A. Dal Corso  v.6.3
     Shape of augmentation charge: PSQ
     Using radial grid of 1073 points,  4 beta functions with: 
                l(1) =   0
                l(2) =   0
                l(3) =   1
                l(4) =   1
     Q(r) pseudized with 0 coefficients 


     atomic species   valence    mass     pseudopotential
     C                 4.00    12.01070     C ( 1.00)

     24 Sym. Ops., with inversion, found



   Cartesian axes

     site n.     atom                  positions (alat units)
         1        C      tau(   1) = (   0.0000000   0.5773503   2.0833333  )
         2        C      tau(   2) = (   0.5000000   0.2886751   2.0833333  )

     number of k points=    19  Methfessel-Paxton smearing, width (Ry)=  0.0200
                       cart. coord. in units 2pi/alat
        k(    1) = (   0.0000000   0.0000000   0.0000000), wk =   0.0138889
        k(    2) = (   0.0000000   0.0962250   0.0000000), wk =   0.0833333
        k(    3) = (   0.0000000   0.1924501   0.0000000), wk =   0.0833333
        k(    4) = (   0.0000000   0.2886751   0.0000000), wk =   0.0833333
        k(    5) = (   0.0000000   0.3849002   0.0000000), wk =   0.0833333
        k(    6) = (   0.0000000   0.4811252   0.0000000), wk =   0.0833333
        k(    7) = (   0.0000000  -0.5773503   0.0000000), wk =   0.0416667
        k(    8) = (   0.0833333   0.1443376   0.0000000), wk =   0.0833333
        k(    9) = (   0.0833333   0.2405626   0.0000000), wk =   0.1666667
        k(   10) = (   0.0833333   0.3367877   0.0000000), wk =   0.1666667
        k(   11) = (   0.0833333   0.4330127   0.0000000), wk =   0.1666667
        k(   12) = (   0.0833333   0.5292377   0.0000000), wk =   0.1666667
        k(   13) = (   0.1666667   0.2886751   0.0000000), wk =   0.0833333
        k(   14) = (   0.1666667   0.3849002   0.0000000), wk =   0.1666667
        k(   15) = (   0.1666667   0.4811252   0.0000000), wk =   0.1666667
        k(   16) = (   0.1666667   0.5773503   0.0000000), wk =   0.0833333
        k(   17) = (   0.2500000   0.4330127   0.0000000), wk =   0.0833333
        k(   18) = (   0.2500000   0.5292377   0.0000000), wk =   0.1666667
        k(   19) = (   0.3333333   0.5773503   0.0000000), wk =   0.0277778

     Dense  grid:   109955 G-vectors     FFT dimensions: (  40,  40, 162)

     Smooth grid:    21249 G-vectors     FFT dimensions: (  24,  24,  96)

     Estimated max dynamical RAM per process >      39.74 MB

     Estimated total dynamical RAM >     158.97 MB

     Initial potential from superposition of free atoms

     starting charge       7.9999, renormalised to       8.0000

     negative rho (up, down):  1.021E-07 0.000E+00
     Starting wfcs are    8 randomized atomic wfcs
     Checking if some PAW data can be deallocated... 

     total cpu time spent up to now is        0.7 secs

     Self-consistent Calculation

     iteration #  1     ecut=    60.00 Ry     beta= 0.70
     Davidson diagonalization with overlap
     ethr =  1.00E-02,  avg # of iterations =  6.1

     negative rho (up, down):  1.797E-06 0.000E+00

     total cpu time spent up to now is        1.1 secs

     total energy              =     -36.84345311 Ry
     estimated scf accuracy    <       0.24133259 Ry

     iteration #  2     ecut=    60.00 Ry     beta= 0.70
     Davidson diagonalization with overlap
     ethr =  3.02E-03,  avg # of iterations =  3.2

     negative rho (up, down):  5.632E-06 0.000E+00

     total cpu time spent up to now is        1.4 secs

     total energy              =     -36.87874884 Ry
     estimated scf accuracy    <       0.00219469 Ry

     iteration #  3     ecut=    60.00 Ry     beta= 0.70
     Davidson diagonalization with overlap
     ethr =  2.74E-05,  avg # of iterations =  7.3

     negative rho (up, down):  1.012E-05 0.000E+00

     total cpu time spent up to now is        1.8 secs

     total energy              =     -36.87912484 Ry
     estimated scf accuracy    <       0.00016598 Ry

     iteration #  4     ecut=    60.00 Ry     beta= 0.70
     Davidson diagonalization with overlap
     ethr =  2.07E-06,  avg # of iterations =  3.3

     negative rho (up, down):  1.053E-05 0.000E+00

     total cpu time spent up to now is        2.1 secs

     total energy              =     -36.87914223 Ry
     estimated scf accuracy    <       0.00000177 Ry

     iteration #  5     ecut=    60.00 Ry     beta= 0.70
     Davidson diagonalization with overlap
     ethr =  2.21E-08,  avg # of iterations =  3.1

     negative rho (up, down):  1.055E-05 0.000E+00

     total cpu time spent up to now is        2.4 secs

     total energy              =     -36.87914345 Ry
     estimated scf accuracy    <       0.00000006 Ry

     iteration #  6     ecut=    60.00 Ry     beta= 0.70
     Davidson diagonalization with overlap
     ethr =  7.70E-10,  avg # of iterations =  2.2

     negative rho (up, down):  1.056E-05 0.000E+00

     total cpu time spent up to now is        2.6 secs

     End of self-consistent calculation

          k = 0.0000 0.0000 0.0000 (  2687 PWs)   bands (ev):

   -20.2767  -8.2720  -3.0970  -3.0970   2.7634   4.3677   5.5353   8.7943

          k = 0.0000 0.0962 0.0000 (  2667 PWs)   bands (ev):

   -20.1049  -8.0627  -3.7698  -3.4660   2.9991   4.6023   5.7677   8.8795

          k = 0.0000 0.1925 0.0000 (  2652 PWs)   bands (ev):

   -19.5911  -7.4400  -5.4713  -4.3256   3.7065   5.3033   6.4653   8.9065

          k = 0.0000 0.2887 0.0000 (  2654 PWs)   bands (ev):

   -18.7409  -7.6614  -6.4234  -5.2749   4.8841   6.4386   7.6158   7.7654

          k = 0.0000 0.3849 0.0000 (  2636 PWs)   bands (ev):

   -17.5653  -9.9688  -6.0636  -5.0640   5.1560   6.5251   8.1383   8.3952

          k = 0.0000 0.4811 0.0000 (  2626 PWs)   bands (ev):

   -16.0886 -12.1815  -6.5711  -3.5305   2.8320   8.1668   8.6771  10.1894

          k = 0.0000-0.5774 0.0000 (  2652 PWs)   bands (ev):

   -14.6537 -13.8703  -6.7452  -2.6098   1.6303   8.1236  11.1147  11.2487

          k = 0.0833 0.1443 0.0000 (  2655 PWs)   bands (ev):

   -19.7621  -7.6466  -4.8359  -4.2024   3.4709   5.0704   6.2337   9.1966

          k = 0.0833 0.2406 0.0000 (  2665 PWs)   bands (ev):

   -19.0802  -6.8258  -6.6134  -5.2764   4.4143   5.9995   7.1660   8.6630

          k = 0.0833 0.3368 0.0000 (  2641 PWs)   bands (ev):

   -18.0674  -8.7844  -6.2216  -5.6311   5.8257   6.2659   7.4368   8.5384

          k = 0.0833 0.4330 0.0000 (  2633 PWs)   bands (ev):

   -16.7400 -11.0151  -6.8971  -4.1490   3.8756   7.6939   9.0377   9.2453

          k = 0.0833 0.5292 0.0000 (  2625 PWs)   bands (ev):

   -15.1523 -13.0870  -7.2465  -2.7308   1.9458   8.8804  10.0363  11.4406

          k = 0.1667 0.2887 0.0000 (  2651 PWs)   bands (ev):

   -18.2357  -7.9716  -6.7466  -5.8229   5.5924   6.7918   7.1496   8.3357

          k = 0.1667 0.3849 0.0000 (  2647 PWs)   bands (ev):

   -17.0709  -9.7856  -7.8578  -4.4791   4.6746   7.2339   8.7214   9.9536

          k = 0.1667 0.4811 0.0000 (  2636 PWs)   bands (ev):

   -15.6148 -11.8151  -8.4512  -2.9420   2.5953   9.3214  10.5893  10.8395

          k = 0.1667 0.5774 0.0000 (  2614 PWs)   bands (ev):

   -14.2225 -13.4215  -8.6419  -1.9708   1.4279  10.7580  11.7350  11.9062

          k = 0.2500 0.4330 0.0000 (  2632 PWs)   bands (ev):

   -15.7750 -10.8146  -9.4734  -3.0358   2.9413   9.0919  10.2411  11.7946

          k = 0.2500 0.5292 0.0000 (  2638 PWs)   bands (ev):

   -14.2505 -12.3499 -10.2014  -1.5398   1.3004  10.9865  11.3448  13.0401

          k = 0.3333 0.5774 0.0000 (  2646 PWs)   bands (ev):

   -12.9339 -12.9339 -11.2681  -0.0831  -0.0831  10.6566  13.2819  13.2823

     the Fermi energy is    -0.0831 ev

!    total energy              =     -36.87914346 Ry
     total all-electron energy =      -152.407338 Ry
     estimated scf accuracy    <          7.9E-10 Ry
     smearing contrib. (-TS)   =      -0.00015672 Ry
     internal energy E=F+TS    =     -36.87898674 Ry

     The total energy is F=E-TS. E is the sum of the following terms:
     one-electron contribution =     -95.43723234 Ry
     hartree contribution      =      49.80884887 Ry
     xc contribution           =      -9.39869859 Ry
     ewald contribution        =      30.48780962 Ry
     one-center paw contrib.   =     -12.33971430 Ry

     convergence has been achieved in   6 iterations

     negative rho (up, down):  1.056E-05 0.000E+00

     Forces acting on atoms (cartesian axes, Ry/au):

     atom    1 type  1   force =     0.00000000    0.00000000    0.00000000
     atom    2 type  1   force =     0.00000000    0.00000000    0.00000000

     Total force =     0.000000     Total SCF correction =     0.000000


     Computing stress (Cartesian axis) and pressure


     negative rho (up, down):  1.056E-05 0.000E+00
          total   stress  (Ry/bohr**3)                   (kbar)     P=       85.90
   0.00087791   0.00000000  -0.00000000          129.14        0.00       -0.00
   0.00000000   0.00087791   0.00000000            0.00      129.14        0.00
  -0.00000000   0.00000000  -0.00000402           -0.00        0.00       -0.59


     BFGS Geometry Optimization
     Energy error            =      1.2E-02 Ry
     Gradient error          =      0.0E+00 Ry/Bohr
     Cell gradient error     =      1.3E+02 kbar

     number of scf cycles    =   1
     number of bfgs steps    =   0

     enthalpy           new  =     -36.8791434632 Ry

     new trust radius        =       0.0805368135 bohr
     new conv_thr            =       0.0000000100 Ry

     new unit-cell volume =    351.56617 a.u.^3 (    52.09673 Ang^3 )
     density =      0.76566 g/cm^3

CELL_PARAMETERS (alat=  4.53534270)
   1.021947729   0.000000000   0.000000000
  -0.510973864   0.885032695   0.000000000
   0.000000000   0.000000000   4.166666667

ATOMIC_POSITIONS (crystal)
C                0.3333333330        0.6666666660        0.5000000000
C                0.6666666660        0.3333333330        0.5000000000



     Writing config-only to output data dir /home/schlafer/Quantum/out/gr.save/ :
     XML data file
     NEW-OLD atomic charge density approx. for the potential
     New effective cutoffs (rho, wfc):  717.33   59.91

     negative rho (up, down):  1.394E-05 0.000E+00

     total cpu time spent up to now is        3.1 secs

     Self-consistent Calculation

     iteration #  1     ecut=    60.00 Ry     beta= 0.70
     Davidson diagonalization with overlap
     ethr =  1.00E-06,  avg # of iterations =  5.8

     negative rho (up, down):  1.230E-05 0.000E+00

     total cpu time spent up to now is        3.5 secs

     total energy              =     -36.88652955 Ry
     estimated scf accuracy    <       0.00121633 Ry

     iteration #  2     ecut=    60.00 Ry     beta= 0.70
     Davidson diagonalization with overlap
     ethr =  1.52E-05,  avg # of iterations =  2.9

     negative rho (up, down):  1.231E-05 0.000E+00

     total cpu time spent up to now is        3.8 secs

     total energy              =     -36.88675457 Ry
     estimated scf accuracy    <       0.00001155 Ry

     iteration #  3     ecut=    60.00 Ry     beta= 0.70
     Davidson diagonalization with overlap
     ethr =  1.44E-07,  avg # of iterations =  2.5

     negative rho (up, down):  1.227E-05 0.000E+00

     total cpu time spent up to now is        4.1 secs

     total energy              =     -36.88675754 Ry
     estimated scf accuracy    <       0.00000056 Ry

     iteration #  4     ecut=    60.00 Ry     beta= 0.70
     Davidson diagonalization with overlap
     ethr =  6.97E-09,  avg # of iterations =  2.2

     negative rho (up, down):  1.225E-05 0.000E+00

     total cpu time spent up to now is        4.3 secs

     total energy              =     -36.88675766 Ry
     estimated scf accuracy    <       0.00000002 Ry

     iteration #  5     ecut=    60.00 Ry     beta= 0.70
     Davidson diagonalization with overlap
     ethr =  2.45E-10,  avg # of iterations =  2.5

     negative rho (up, down):  1.224E-05 0.000E+00

     total cpu time spent up to now is        4.6 secs

     End of self-consistent calculation

          k = 0.0000 0.0000 0.0000 (  2687 PWs)   bands (ev):

   -20.0442  -8.1168  -3.4313  -3.4313   2.6778   4.2761   5.4685   8.0514

          k = 0.0000 0.0942 0.0000 (  2667 PWs)   bands (ev):

   -19.8787  -7.9182  -4.0864  -3.7757   2.9037   4.5000   5.6910   8.1234

          k = 0.0000 0.1883 0.0000 (  2652 PWs)   bands (ev):

   -19.3840  -7.3277  -5.7370  -4.5814   3.5813   5.1689   6.3578   8.0927

          k = 0.0000 0.2825 0.0000 (  2654 PWs)   bands (ev):

   -18.5659  -7.8540  -6.3646  -5.4751   4.7089   6.2327   7.0329   7.4249

          k = 0.0000 0.3766 0.0000 (  2636 PWs)   bands (ev):

   -17.4360 -10.0781  -6.2196  -5.0792   4.5921   6.2778   7.4874   7.8657

          k = 0.0000 0.4708 0.0000 (  2626 PWs)   bands (ev):

   -16.0244 -12.2007  -6.6995  -3.6359   2.4213   7.2381   8.3146   9.8200

          k = 0.0000-0.5650 0.0000 (  2652 PWs)   bands (ev):

   -14.7303 -13.7398  -6.8642  -2.7774   1.3043   7.1627  10.6613  10.8006

          k = 0.0815 0.1412 0.0000 (  2655 PWs)   bands (ev):

   -19.5486  -7.5235  -5.1268  -4.4647   3.3556   4.9467   6.1369   8.4271

          k = 0.0815 0.2354 0.0000 (  2665 PWs)   bands (ev):

   -18.8922  -6.8504  -6.7455  -5.4780   4.2590   5.8325   7.0275   7.8381

          k = 0.0815 0.3296 0.0000 (  2641 PWs)   bands (ev):

   -17.9181  -8.9430  -6.3762  -5.6148   5.6101   5.6248   7.1891   8.2142

          k = 0.0815 0.4237 0.0000 (  2633 PWs)   bands (ev):

   -16.6447 -11.0873  -7.0193  -4.2160   3.3862   7.3921   8.0873   8.9205

          k = 0.0815 0.5179 0.0000 (  2625 PWs)   bands (ev):

   -15.1442 -13.0543  -7.3520  -2.8866   1.5876   7.9055   9.6327  10.9961

          k = 0.1631 0.2825 0.0000 (  2651 PWs)   bands (ev):

   -18.0799  -8.1870  -6.8612  -5.7960   5.3866   6.0907   6.9289   8.1459

          k = 0.1631 0.3766 0.0000 (  2647 PWs)   bands (ev):

   -16.9609  -9.9312  -7.9291  -4.5260   4.1115   6.9574   8.4219   9.6588

          k = 0.1631 0.4708 0.0000 (  2636 PWs)   bands (ev):

   -15.5695 -11.8651  -8.5089  -3.0786   2.1681   8.9505   9.8261  10.1827

          k = 0.1631 0.5650 0.0000 (  2614 PWs)   bands (ev):

   -14.3069 -13.3308  -8.6950  -2.1714   1.0816   9.7276  11.2449  11.4237

          k = 0.2446 0.4237 0.0000 (  2632 PWs)   bands (ev):

   -15.7196 -10.9665  -9.4376  -3.1644   2.4744   8.7337   9.8526  11.4223

          k = 0.2446 0.5179 0.0000 (  2638 PWs)   bands (ev):

   -14.2778 -12.4087 -10.1506  -1.7581   0.9315  10.5531  10.8759  11.9974

          k = 0.3262 0.5650 0.0000 (  2646 PWs)   bands (ev):

   -13.0427 -13.0427 -11.0760  -0.3830  -0.3830  10.2607  12.5773  12.5773

     the Fermi energy is    -0.3830 ev

!    total energy              =     -36.88675766 Ry
     total all-electron energy =      -152.414952 Ry
     estimated scf accuracy    <          2.7E-10 Ry
     smearing contrib. (-TS)   =      -0.00015672 Ry
     internal energy E=F+TS    =     -36.88660094 Ry

     The total energy is F=E-TS. E is the sum of the following terms:
     one-electron contribution =     -91.20417956 Ry
     hartree contribution      =      47.61211315 Ry
     xc contribution           =      -9.29847261 Ry
     ewald contribution        =      28.33891057 Ry
     one-center paw contrib.   =     -12.33497250 Ry

     convergence has been achieved in   5 iterations

     negative rho (up, down):  1.224E-05 0.000E+00

     Forces acting on atoms (cartesian axes, Ry/au):

     atom    1 type  1   force =     0.00000000    0.00000000    0.00000000
     atom    2 type  1   force =     0.00000000    0.00000000    0.00000000

     Total force =     0.000000     Total SCF correction =     0.000000


     Computing stress (Cartesian axis) and pressure


     negative rho (up, down):  1.224E-05 0.000E+00
          total   stress  (Ry/bohr**3)                   (kbar)     P=       16.28
   0.00016808  -0.00000000  -0.00000000           24.72       -0.00       -0.00
  -0.00000000   0.00016808   0.00000000           -0.00       24.72        0.00
   0.00000000   0.00000000  -0.00000419            0.00        0.00       -0.62

     Energy error            =      7.6E-03 Ry
     Gradient error          =      1.6E-25 Ry/Bohr
     Cell gradient error     =      2.5E+01 kbar

     number of scf cycles    =   2
     number of bfgs steps    =   1

     enthalpy           old  =     -36.8791434632 Ry
     enthalpy           new  =     -36.8867576631 Ry

     CASE: enthalpy          _new < enthalpy          _old

     new trust radius        =       0.0195901500 bohr
     new conv_thr            =            1.0E-10 Ry

     new unit-cell volume =    355.24894 a.u.^3 (    52.64246 Ang^3 )
     density =      0.75772 g/cm^3

CELL_PARAMETERS (alat=  4.53534270)
   1.027286397  -0.000000000   0.000000000
  -0.513643198   0.889656117   0.000000000
   0.000000000   0.000000000   4.166666667

ATOMIC_POSITIONS (crystal)
C                0.3333333330        0.6666666660        0.5000000000
C                0.6666666660        0.3333333330        0.5000000000



     Writing config-only to output data dir /home/schlafer/Quantum/out/gr.save/ :
     XML data file
     NEW-OLD atomic charge density approx. for the potential
     New effective cutoffs (rho, wfc):  717.22   59.90

     negative rho (up, down):  1.301E-05 0.000E+00

     total cpu time spent up to now is        5.1 secs

     Self-consistent Calculation

     iteration #  1     ecut=    60.00 Ry     beta= 0.70
     Davidson diagonalization with overlap
     ethr =  1.00E-06,  avg # of iterations =  3.0

     negative rho (up, down):  1.251E-05 0.000E+00

     total cpu time spent up to now is        5.4 secs

     total energy              =     -36.88708073 Ry
     estimated scf accuracy    <       0.00006972 Ry

     iteration #  2     ecut=    60.00 Ry     beta= 0.70
     Davidson diagonalization with overlap
     ethr =  8.71E-07,  avg # of iterations =  3.1

     negative rho (up, down):  1.246E-05 0.000E+00

     total cpu time spent up to now is        5.7 secs

     total energy              =     -36.88709436 Ry
     estimated scf accuracy    <       0.00000066 Ry

     iteration #  3     ecut=    60.00 Ry     beta= 0.70
     Davidson diagonalization with overlap
     ethr =  8.24E-09,  avg # of iterations =  2.2

     negative rho (up, down):  1.243E-05 0.000E+00

     total cpu time spent up to now is        6.0 secs

     total energy              =     -36.88709451 Ry
     estimated scf accuracy    <       0.00000004 Ry

     iteration #  4     ecut=    60.00 Ry     beta= 0.70
     Davidson diagonalization with overlap
     ethr =  4.76E-10,  avg # of iterations =  2.2

     negative rho (up, down):  1.242E-05 0.000E+00

     total cpu time spent up to now is        6.3 secs

     total energy              =     -36.88709452 Ry
     estimated scf accuracy    <          1.9E-09 Ry

     iteration #  5     ecut=    60.00 Ry     beta= 0.70
     Davidson diagonalization with overlap
     ethr =  2.41E-11,  avg # of iterations =  2.4

     negative rho (up, down):  1.242E-05 0.000E+00

     total cpu time spent up to now is        6.6 secs

     End of self-consistent calculation

          k = 0.0000 0.0000 0.0000 (  2687 PWs)   bands (ev):

   -19.9882  -8.0806  -3.5076  -3.5076   2.6572   4.2540   5.4515   7.8781

          k = 0.0000 0.0937 0.0000 (  2667 PWs)   bands (ev):

   -19.8242  -7.8845  -4.1588  -3.8464   2.8808   4.4755   5.6716   7.9466

          k = 0.0000 0.1873 0.0000 (  2652 PWs)   bands (ev):

   -19.3341  -7.3016  -5.7979  -4.6396   3.5514   5.1369   6.3312   7.9010

          k = 0.0000 0.2810 0.0000 (  2654 PWs)   bands (ev):

   -18.5235  -7.8979  -6.3510  -5.5204   4.6673   6.1799   6.8654   7.3581

          k = 0.0000 0.3747 0.0000 (  2636 PWs)   bands (ev):

   -17.4047 -10.1024  -6.2547  -5.0830   4.4595   6.2192   7.2716   7.8015

          k = 0.0000 0.4683 0.0000 (  2626 PWs)   bands (ev):

   -16.0087 -12.2034  -6.7281  -3.6606   2.3246   7.0169   8.2330   9.7328

          k =-0.0000-0.5620 0.0000 (  2652 PWs)   bands (ev):

   -14.7460 -13.7091  -6.8906  -2.8165   1.2272   6.9379  10.5548  10.6953

          k = 0.0811 0.1405 0.0000 (  2655 PWs)   bands (ev):

   -19.4972  -7.4949  -5.1936  -4.5244   3.3281   4.9172   6.1129   8.2473

          k = 0.0811 0.2342 0.0000 (  2665 PWs)   bands (ev):

   -18.8468  -6.9048  -6.7269  -5.5235   4.2220   5.7928   6.9934   7.6454

          k = 0.0811 0.3278 0.0000 (  2641 PWs)   bands (ev):

   -17.8820  -8.9791  -6.4107  -5.6112   5.4735   5.5591   7.1317   8.0593

          k = 0.0811 0.4215 0.0000 (  2633 PWs)   bands (ev):

   -16.6215 -11.1029  -7.0462  -4.2318   3.2712   7.3192   7.8651   8.8440

          k = 0.0811 0.5152 0.0000 (  2625 PWs)   bands (ev):

   -15.1421 -13.0447  -7.3750  -2.9230   1.5031   7.6766   9.5383  10.8912

          k = 0.1622 0.2810 0.0000 (  2651 PWs)   bands (ev):

   -18.0422  -8.2362  -6.8864  -5.7899   5.3380   5.9269   6.8767   8.0998

          k = 0.1622 0.3747 0.0000 (  2647 PWs)   bands (ev):

   -16.9342  -9.9645  -7.9436  -4.5371   3.9797   6.8923   8.3512   9.5655

          k = 0.1622 0.4683 0.0000 (  2636 PWs)   bands (ev):

   -15.5583 -11.8758  -8.5201  -3.1106   2.0679   8.8625   9.5874  10.0871

          k = 0.1622 0.5620 0.0000 (  2614 PWs)   bands (ev):

   -14.3246 -13.3102  -8.7051  -2.2182   1.0001   9.4851  11.1294  11.3105

          k = 0.2434 0.4215 0.0000 (  2632 PWs)   bands (ev):

   -15.7059 -11.0007  -9.4273  -3.1946   2.3652   8.6494   9.7614  11.3251

          k = 0.2434 0.5152 0.0000 (  2638 PWs)   bands (ev):

   -14.2837 -12.4222 -10.1354  -1.8091   0.8452  10.4518  10.7647  11.7483

          k = 0.3245 0.5620 0.0000 (  2646 PWs)   bands (ev):

   -13.0663 -13.0663 -11.0305  -0.4531  -0.4531  10.1681  12.4032  12.4032

     the Fermi energy is    -0.4531 ev

!    total energy              =     -36.88709452 Ry
     total all-electron energy =      -152.415289 Ry
     estimated scf accuracy    <          3.3E-11 Ry
     smearing contrib. (-TS)   =      -0.00015672 Ry
     internal energy E=F+TS    =     -36.88693780 Ry

     The total energy is F=E-TS. E is the sum of the following terms:
     one-electron contribution =     -90.21859284 Ry
     hartree contribution      =      47.10079832 Ry
     xc contribution           =      -9.27490864 Ry
     ewald contribution        =      27.83968970 Ry
     one-center paw contrib.   =     -12.33392434 Ry

     convergence has been achieved in   5 iterations

     negative rho (up, down):  1.242E-05 0.000E+00

     Forces acting on atoms (cartesian axes, Ry/au):

     atom    1 type  1   force =     0.00000000    0.00000000    0.00000000
     atom    2 type  1   force =    -0.00000000   -0.00000000    0.00000000

     Total force =     0.000000     Total SCF correction =     0.000000


     Computing stress (Cartesian axis) and pressure


     negative rho (up, down):  1.242E-05 0.000E+00
          total   stress  (Ry/bohr**3)                   (kbar)     P=        1.39
   0.00001630   0.00000000   0.00000000            2.40        0.00        0.00
   0.00000000   0.00001630   0.00000000            0.00        2.40        0.00
  -0.00000000  -0.00000000  -0.00000418           -0.00       -0.00       -0.61

     Energy error            =      3.4E-04 Ry
     Gradient error          =      1.3E-25 Ry/Bohr
     Cell gradient error     =      2.4E+00 kbar

     number of scf cycles    =   3
     number of bfgs steps    =   2

     enthalpy           old  =     -36.8867576631 Ry
     enthalpy           new  =     -36.8870945158 Ry

     CASE: enthalpy          _new < enthalpy          _old

     new trust radius        =       0.0021161701 bohr
     new conv_thr            =            1.0E-10 Ry

     new unit-cell volume =    355.64791 a.u.^3 (    52.70158 Ang^3 )
     density =      0.75687 g/cm^3

CELL_PARAMETERS (alat=  4.53534270)
   1.027863091  -0.000000000   0.000000000
  -0.513931546   0.890155549   0.000000000
   0.000000000   0.000000000   4.166666667

ATOMIC_POSITIONS (crystal)
C                0.3333333330        0.6666666660        0.5000000000
C                0.6666666660        0.3333333330        0.5000000000



     Writing config-only to output data dir /home/schlafer/Quantum/out/gr.save/ :
     XML data file
     NEW-OLD atomic charge density approx. for the potential
     New effective cutoffs (rho, wfc):  717.21   59.89

     negative rho (up, down):  1.248E-05 0.000E+00

     total cpu time spent up to now is        7.1 secs

     Self-consistent Calculation

     iteration #  1     ecut=    60.00 Ry     beta= 0.70
     Davidson diagonalization with overlap
     ethr =  1.00E-06,  avg # of iterations =  2.0

     Threshold (ethr) on eigenvalues was too large:
     Diagonalizing with lowered threshold

     Davidson diagonalization with overlap
     ethr =  1.00E-08,  avg # of iterations =  1.0

     negative rho (up, down):  1.244E-05 0.000E+00

     total cpu time spent up to now is        7.6 secs

     total energy              =     -36.88709767 Ry
     estimated scf accuracy    <       0.00000079 Ry

     iteration #  2     ecut=    60.00 Ry     beta= 0.70
     Davidson diagonalization with overlap
     ethr =  9.83E-09,  avg # of iterations =  2.0

     negative rho (up, down):  1.243E-05 0.000E+00

     total cpu time spent up to now is        7.9 secs

     total energy              =     -36.88709782 Ry
     estimated scf accuracy    <          7.0E-09 Ry

     iteration #  3     ecut=    60.00 Ry     beta= 0.70
     Davidson diagonalization with overlap
     ethr =  8.79E-11,  avg # of iterations =  2.3

     negative rho (up, down):  1.243E-05 0.000E+00

     total cpu time spent up to now is        8.1 secs

     total energy              =     -36.88709782 Ry
     estimated scf accuracy    <          3.7E-10 Ry

     iteration #  4     ecut=    60.00 Ry     beta= 0.70
     Davidson diagonalization with overlap
     ethr =  4.57E-12,  avg # of iterations =  2.2

     negative rho (up, down):  1.243E-05 0.000E+00

     total cpu time spent up to now is        8.4 secs

     End of self-consistent calculation

          k = 0.0000 0.0000 0.0000 (  2687 PWs)   bands (ev):

   -19.9822  -8.0768  -3.5157  -3.5157   2.6550   4.2517   5.4496   7.8596

          k = 0.0000 0.0936 0.0000 (  2667 PWs)   bands (ev):

   -19.8184  -7.8809  -4.1666  -3.8539   2.8783   4.4729   5.6695   7.9277

          k = 0.0000 0.1872 0.0000 (  2652 PWs)   bands (ev):

   -19.3287  -7.2988  -5.8044  -4.6458   3.5482   5.1334   6.3282   7.8804

          k = 0.0000 0.2808 0.0000 (  2654 PWs)   bands (ev):

   -18.5190  -7.9025  -6.3495  -5.5252   4.6629   6.1741   6.8476   7.3494

          k = 0.0000 0.3745 0.0000 (  2636 PWs)   bands (ev):

   -17.4013 -10.1050  -6.2584  -5.0834   4.4453   6.2129   7.2484   7.7946

          k = 0.0000 0.4681 0.0000 (  2626 PWs)   bands (ev):

   -16.0070 -12.2037  -6.7311  -3.6633   2.3142   6.9932   8.2243   9.7235

          k =-0.0000-0.5617 0.0000 (  2652 PWs)   bands (ev):

   -14.7477 -13.7058  -6.8934  -2.8206   1.2190   6.9139  10.5434  10.6840

          k = 0.0811 0.1404 0.0000 (  2655 PWs)   bands (ev):

   -19.4916  -7.4918  -5.2007  -4.5308   3.3251   4.9141   6.1103   8.2281

          k = 0.0811 0.2340 0.0000 (  2665 PWs)   bands (ev):

   -18.8419  -6.9106  -6.7250  -5.5283   4.2181   5.7886   6.9897   7.6248

          k = 0.0811 0.3277 0.0000 (  2641 PWs)   bands (ev):

   -17.8781  -8.9829  -6.4144  -5.6108   5.4572   5.5536   7.1256   8.0407

          k = 0.0811 0.4213 0.0000 (  2633 PWs)   bands (ev):

   -16.6190 -11.1046  -7.0490  -4.2335   3.2589   7.3112   7.8414   8.8358

          k = 0.0811 0.5149 0.0000 (  2625 PWs)   bands (ev):

   -15.1419 -13.0437  -7.3774  -2.9269   1.4941   7.6521   9.5282  10.8800

          k = 0.1621 0.2808 0.0000 (  2651 PWs)   bands (ev):

   -18.0381  -8.2415  -6.8891  -5.7893   5.3328   5.9093   6.8711   8.0948

          k = 0.1621 0.3745 0.0000 (  2647 PWs)   bands (ev):

   -16.9313  -9.9680  -7.9451  -4.5383   3.9656   6.8853   8.3437   9.5539

          k = 0.1621 0.4681 0.0000 (  2636 PWs)   bands (ev):

   -15.5570 -11.8769  -8.5212  -3.1140   2.0571   8.8530   9.5618  10.0768

          k = 0.1621 0.5617 0.0000 (  2614 PWs)   bands (ev):

   -14.3264 -13.3080  -8.7061  -2.2232   0.9914   9.4591  11.1170  11.2983

          k = 0.2432 0.4213 0.0000 (  2632 PWs)   bands (ev):

   -15.7044 -11.0043  -9.4262  -3.1978   2.3536   8.6404   9.7516  11.3142

          k = 0.2432 0.5149 0.0000 (  2638 PWs)   bands (ev):

   -14.2843 -12.4237 -10.1337  -1.8145   0.8359  10.4410  10.7527  11.7215

          k = 0.3243 0.5617 0.0000 (  2646 PWs)   bands (ev):

   -13.0688 -13.0688 -11.0257  -0.4606  -0.4606  10.1582  12.3843  12.3843

     the Fermi energy is    -0.4606 ev

!    total energy              =     -36.88709782 Ry
     total all-electron energy =      -152.415292 Ry
     estimated scf accuracy    <          1.0E-11 Ry
     smearing contrib. (-TS)   =      -0.00015672 Ry
     internal energy E=F+TS    =     -36.88694110 Ry

     The total energy is F=E-TS. E is the sum of the following terms:
     one-electron contribution =     -90.11312425 Ry
     hartree contribution      =      47.04608766 Ry
     xc contribution           =      -9.27238264 Ry
     ewald contribution        =      27.78629181 Ry
     one-center paw contrib.   =     -12.33381370 Ry

     convergence has been achieved in   4 iterations

     negative rho (up, down):  1.243E-05 0.000E+00

     Forces acting on atoms (cartesian axes, Ry/au):

     atom    1 type  1   force =    -0.00000000    0.00000000    0.00000000
     atom    2 type  1   force =     0.00000000    0.00000000    0.00000000

     Total force =     0.000000     Total SCF correction =     0.000000


     Computing stress (Cartesian axis) and pressure


     negative rho (up, down):  1.243E-05 0.000E+00
          total   stress  (Ry/bohr**3)                   (kbar)     P=       -0.17
   0.00000037  -0.00000000   0.00000000            0.05       -0.00        0.00
  -0.00000000   0.00000037   0.00000000           -0.00        0.05        0.00
  -0.00000000  -0.00000000  -0.00000417           -0.00       -0.00       -0.61

     Energy error            =      3.3E-06 Ry
     Gradient error          =      1.3E-25 Ry/Bohr
     Cell gradient error     =      5.4E-02 kbar

     bfgs converged in   4 scf cycles and   3 bfgs steps
     (criteria: energy <  1.0E-04 Ry, force <  1.0E-05 Ry/Bohr, cell <  5.0E-01 kbar)

     End of BFGS Geometry Optimization

     Final enthalpy           =     -36.8870978236 Ry

     File /home/schlafer/Quantum/out/gr.bfgs deleted, as requested
Begin final coordinates
     new unit-cell volume =    355.64791 a.u.^3 (    52.70158 Ang^3 )
     density =      0.75687 g/cm^3

CELL_PARAMETERS (alat=  4.53534270)
   1.027863091  -0.000000000   0.000000000
  -0.513931546   0.890155549   0.000000000
   0.000000000   0.000000000   4.166666667

ATOMIC_POSITIONS (crystal)
C                0.3333333330        0.6666666660        0.5000000000
C                0.6666666660        0.3333333330        0.5000000000
End final coordinates



     Writing config-only to output data dir /home/schlafer/Quantum/out/gr.save/ :
     XML data file

     Final scf calculation at the relaxed structure.
     The G-vectors are recalculated for the final unit cell
     Results may differ from those at the preceding step.

     Parallelization info
     --------------------
     sticks:   dense  smooth     PW     G-vecs:    dense   smooth      PW
     Min         267      90     27                28985     5588     959
     Max         268      91     28                29004     5599     974
     Sum        1069     361    109               115961    22377    3855

     Using Slab Decomposition



     bravais-lattice index     =            4
     lattice parameter (alat)  =       4.5353  a.u.
     unit-cell volume          =     355.6479 (a.u.)^3
     number of atoms/cell      =            2
     number of atomic types    =            1
     number of electrons       =         8.00
     number of Kohn-Sham states=            8
     kinetic-energy cutoff     =      60.0000  Ry
     charge density cutoff     =     720.0000  Ry
     scf convergence threshold =      1.0E-10
     mixing beta               =       0.7000
     number of iterations used =            8  plain     mixing
     press convergence thresh. =      5.0E-01
     Exchange-correlation= SLA  PW   PBX  PBC
                           (   1   4   3   4   0   0   0)

     celldm(1)=   4.535343  celldm(2)=   0.000000  celldm(3)=   4.166667
     celldm(4)=   0.000000  celldm(5)=   0.000000  celldm(6)=   0.000000

     crystal axes: (cart. coord. in units of alat)
               a(1) = (   1.027863  -0.000000   0.000000 )  
               a(2) = (  -0.513932   0.890156   0.000000 )  
               a(3) = (   0.000000   0.000000   4.166667 )  

     reciprocal axes: (cart. coord. in units 2 pi/alat)
               b(1) = (  0.972892  0.561700 -0.000000 )  
               b(2) = (  0.000000  1.123399 -0.000000 )  
               b(3) = ( -0.000000 -0.000000  0.240000 )  


     PseudoPot. # 1 for C  read from file:
     /home/schlafer/Quantum/pseudo/C.pbe-n-kjpaw_psl.1.0.0.UPF
     MD5 check sum: 5f16ad9a65e90284d1d834d4ab3b0f7d
     Pseudo is Projector augmented-wave + core cor, Zval =  4.0
     Generated using &quot;atomic&quot; code by A. Dal Corso  v.6.3
     Shape of augmentation charge: PSQ
     Using radial grid of 1073 points,  4 beta functions with: 
                l(1) =   0
                l(2) =   0
                l(3) =   1
                l(4) =   1
     Q(r) pseudized with 0 coefficients 


     atomic species   valence    mass     pseudopotential
     C                 4.00    12.01070     C ( 1.00)

     24 Sym. Ops., with inversion, found



   Cartesian axes

     site n.     atom                  positions (alat units)
         1        C      tau(   1) = (   0.0000000   0.5934370   2.0833333  )
         2        C      tau(   2) = (   0.5139315   0.2967185   2.0833333  )

     number of k points=    19  Methfessel-Paxton smearing, width (Ry)=  0.0200
                       cart. coord. in units 2pi/alat
        k(    1) = (   0.0000000   0.0000000   0.0000000), wk =   0.0138889
        k(    2) = (   0.0000000   0.0936166   0.0000000), wk =   0.0833333
        k(    3) = (   0.0000000   0.1872332   0.0000000), wk =   0.0833333
        k(    4) = (   0.0000000   0.2808498   0.0000000), wk =   0.0833333
        k(    5) = (   0.0000000   0.3744664   0.0000000), wk =   0.0833333
        k(    6) = (   0.0000000   0.4680830   0.0000000), wk =   0.0833333
        k(    7) = (  -0.0000000  -0.5616996   0.0000000), wk =   0.0416667
        k(    8) = (   0.0810744   0.1404249   0.0000000), wk =   0.0833333
        k(    9) = (   0.0810744   0.2340415   0.0000000), wk =   0.1666667
        k(   10) = (   0.0810744   0.3276581   0.0000000), wk =   0.1666667
        k(   11) = (   0.0810744   0.4212747   0.0000000), wk =   0.1666667
        k(   12) = (   0.0810744   0.5148913   0.0000000), wk =   0.1666667
        k(   13) = (   0.1621487   0.2808498   0.0000000), wk =   0.0833333
        k(   14) = (   0.1621487   0.3744664   0.0000000), wk =   0.1666667
        k(   15) = (   0.1621487   0.4680830   0.0000000), wk =   0.1666667
        k(   16) = (   0.1621487   0.5616996   0.0000000), wk =   0.0833333
        k(   17) = (   0.2432231   0.4212747   0.0000000), wk =   0.0833333
        k(   18) = (   0.2432231   0.5148913   0.0000000), wk =   0.1666667
        k(   19) = (   0.3242974   0.5616996   0.0000000), wk =   0.0277778

     Dense  grid:   115961 G-vectors     FFT dimensions: (  40,  40, 162)

     Smooth grid:    22377 G-vectors     FFT dimensions: (  24,  24,  96)

     Estimated max dynamical RAM per process >      41.81 MB

     Estimated total dynamical RAM >     167.22 MB

     Initial potential from superposition of free atoms

     starting charge       7.9999, renormalised to       8.0000

     negative rho (up, down):  1.083E-07 0.000E+00
     Starting wfcs are    8 randomized atomic wfcs
     Checking if some PAW data can be deallocated... 

     total cpu time spent up to now is        9.0 secs

     Self-consistent Calculation

     iteration #  1     ecut=    60.00 Ry     beta= 0.70
     Davidson diagonalization with overlap
     c_bands:  1 eigenvalues not converged
     c_bands:  1 eigenvalues not converged
     c_bands:  1 eigenvalues not converged
     c_bands:  1 eigenvalues not converged
     c_bands:  1 eigenvalues not converged
     c_bands:  1 eigenvalues not converged
     c_bands:  1 eigenvalues not converged
     ethr =  1.00E-06,  avg # of iterations = 17.7

     negative rho (up, down):  3.119E-06 0.000E+00

     total cpu time spent up to now is        9.9 secs

     total energy              =     -36.85433711 Ry
     estimated scf accuracy    <       0.20237623 Ry

     iteration #  2     ecut=    60.00 Ry     beta= 0.70
     Davidson diagonalization with overlap
     ethr =  2.53E-03,  avg # of iterations =  2.1

     negative rho (up, down):  6.126E-06 0.000E+00

     total cpu time spent up to now is       10.2 secs

     total energy              =     -36.88676307 Ry
     estimated scf accuracy    <       0.00258796 Ry

     iteration #  3     ecut=    60.00 Ry     beta= 0.70
     Davidson diagonalization with overlap
     ethr =  3.23E-05,  avg # of iterations =  6.6

     negative rho (up, down):  9.432E-06 0.000E+00

     total cpu time spent up to now is       10.6 secs

     total energy              =     -36.88717260 Ry
     estimated scf accuracy    <       0.00018191 Ry

     iteration #  4     ecut=    60.00 Ry     beta= 0.70
     Davidson diagonalization with overlap
     ethr =  2.27E-06,  avg # of iterations =  2.8

     negative rho (up, down):  9.759E-06 0.000E+00

     total cpu time spent up to now is       10.8 secs

     total energy              =     -36.88719091 Ry
     estimated scf accuracy    <       0.00000178 Ry

     iteration #  5     ecut=    60.00 Ry     beta= 0.70
     Davidson diagonalization with overlap
     ethr =  2.22E-08,  avg # of iterations =  3.2

     negative rho (up, down):  9.763E-06 0.000E+00

     total cpu time spent up to now is       11.1 secs

     total energy              =     -36.88719249 Ry
     estimated scf accuracy    <       0.00000004 Ry

     iteration #  6     ecut=    60.00 Ry     beta= 0.70
     Davidson diagonalization with overlap
     ethr =  5.14E-10,  avg # of iterations =  2.3

     negative rho (up, down):  9.771E-06 0.000E+00

     total cpu time spent up to now is       11.4 secs

     total energy              =     -36.88719251 Ry
     estimated scf accuracy    <          5.0E-09 Ry

     iteration #  7     ecut=    60.00 Ry     beta= 0.70
     Davidson diagonalization with overlap
     ethr =  6.19E-11,  avg # of iterations =  2.1

     negative rho (up, down):  9.770E-06 0.000E+00

     total cpu time spent up to now is       11.7 secs

     End of self-consistent calculation

          k = 0.0000 0.0000 0.0000 (  2783 PWs)   bands (ev):

   -19.9822  -8.0769  -3.5158  -3.5158   2.6465   4.2463   5.4281   7.8594

          k = 0.0000 0.0936 0.0000 (  2774 PWs)   bands (ev):

   -19.8184  -7.8811  -4.1667  -3.8540   2.8699   4.4675   5.6480   7.9274

          k = 0.0000 0.1872 0.0000 (  2798 PWs)   bands (ev):

   -19.3288  -7.2989  -5.8046  -4.6460   3.5399   5.1282   6.3067   7.8800

          k = 0.0000 0.2808 0.0000 (  2780 PWs)   bands (ev):

   -18.5190  -7.9027  -6.3496  -5.5254   4.6548   6.1695   6.8470   7.3341

          k = 0.0000 0.3745 0.0000 (  2792 PWs)   bands (ev):

   -17.4014 -10.1052  -6.2586  -5.0835   4.4453   6.2054   7.2478   7.7896

          k = 0.0000 0.4681 0.0000 (  2790 PWs)   bands (ev):

   -16.0073 -12.2039  -6.7313  -3.6634   2.3142   6.9931   8.2171   9.7189

          k =-0.0000-0.5617 0.0000 (  2804 PWs)   bands (ev):

   -14.7478 -13.7061  -6.8937  -2.8207   1.2189   6.9138  10.5378  10.6770

          k = 0.0811 0.1404 0.0000 (  2785 PWs)   bands (ev):

   -19.4917  -7.4920  -5.2008  -4.5309   3.3168   4.9088   6.0887   8.2276

          k = 0.0811 0.2340 0.0000 (  2792 PWs)   bands (ev):

   -18.8420  -6.9107  -6.7251  -5.5285   4.2099   5.7834   6.9682   7.6248

          k = 0.0811 0.3277 0.0000 (  2791 PWs)   bands (ev):

   -17.8782  -8.9831  -6.4146  -5.6109   5.4572   5.5458   7.1206   8.0355

          k = 0.0811 0.4213 0.0000 (  2793 PWs)   bands (ev):

   -16.6191 -11.1048  -7.0493  -4.2336   3.2589   7.3043   7.8407   8.8311

          k = 0.0811 0.5149 0.0000 (  2797 PWs)   bands (ev):

   -15.1420 -13.0439  -7.3776  -2.9270   1.4940   7.6520   9.5215  10.8762

          k = 0.1621 0.2808 0.0000 (  2794 PWs)   bands (ev):

   -18.0382  -8.2416  -6.8893  -5.7894   5.3249   5.9093   6.8661   8.0731

          k = 0.1621 0.3745 0.0000 (  2797 PWs)   bands (ev):

   -16.9315  -9.9682  -7.9454  -4.5384   3.9656   6.8778   8.3391   9.5384

          k = 0.1621 0.4681 0.0000 (  2786 PWs)   bands (ev):

   -15.5572 -11.8771  -8.5215  -3.1141   2.0571   8.8464   9.5613  10.0734

          k = 0.1621 0.5617 0.0000 (  2790 PWs)   bands (ev):

   -14.3266 -13.3082  -8.7064  -2.2233   0.9913   9.4590  11.1122  11.2015

          k = 0.2432 0.4213 0.0000 (  2778 PWs)   bands (ev):

   -15.7046 -11.0045  -9.4264  -3.1979   2.3535   8.6336   9.7484  11.2953

          k = 0.2432 0.5149 0.0000 (  2793 PWs)   bands (ev):

   -14.2845 -12.4239 -10.1340  -1.8146   0.8358  10.4403  10.7472  11.7211

          k = 0.3243 0.5617 0.0000 (  2790 PWs)   bands (ev):

   -13.0690 -13.0690 -11.0259  -0.4607  -0.4607  10.1578  12.3827  12.3827

     the Fermi energy is    -0.4607 ev

!    total energy              =     -36.88719251 Ry
     total all-electron energy =      -152.415387 Ry
     estimated scf accuracy    <          4.9E-11 Ry
     smearing contrib. (-TS)   =      -0.00015672 Ry
     internal energy E=F+TS    =     -36.88703579 Ry

     The total energy is F=E-TS. E is the sum of the following terms:
     one-electron contribution =     -90.11311711 Ry
     hartree contribution      =      47.04608865 Ry
     xc contribution           =      -9.27244879 Ry
     ewald contribution        =      27.78629181 Ry
     one-center paw contrib.   =     -12.33385035 Ry

     convergence has been achieved in   7 iterations

     negative rho (up, down):  9.770E-06 0.000E+00

     Forces acting on atoms (cartesian axes, Ry/au):

     atom    1 type  1   force =     0.00000000    0.00000000    0.00000000
     atom    2 type  1   force =    -0.00000000   -0.00000000    0.00000000

     Total force =     0.000000     Total SCF correction =     0.000000


     Computing stress (Cartesian axis) and pressure


     negative rho (up, down):  9.770E-06 0.000E+00
          total   stress  (Ry/bohr**3)                   (kbar)     P=       -0.16
   0.00000047  -0.00000000   0.00000000            0.07       -0.00        0.00
  -0.00000000   0.00000047  -0.00000000           -0.00        0.07       -0.00
  -0.00000000   0.00000000  -0.00000416           -0.00        0.00       -0.61


     Writing all to output data dir /home/schlafer/Quantum/out/gr.save/ :
     XML data file, charge density, pseudopotentials, collected wavefunctions

     init_run     :      1.00s CPU      0.88s WALL (       2 calls)
     electrons    :     15.64s CPU      8.96s WALL (       5 calls)
     update_pot   :      0.24s CPU      0.21s WALL (       3 calls)
     forces       :      0.65s CPU      0.42s WALL (       5 calls)
     stress       :      1.91s CPU      1.36s WALL (       5 calls)

     Called by init_run:
     wfcinit      :      0.27s CPU      0.14s WALL (       2 calls)
     potinit      :      0.32s CPU      0.33s WALL (       2 calls)
     hinit0       :      0.31s CPU      0.32s WALL (       2 calls)

     Called by electrons:
     c_bands      :     10.53s CPU      5.43s WALL (      28 calls)
     sum_band     :      3.06s CPU      1.57s WALL (      28 calls)
     v_of_rho     :      0.95s CPU      0.98s WALL (      32 calls)
     newd         :      0.62s CPU      0.55s WALL (      32 calls)
     PAW_pot      :      0.76s CPU      0.73s WALL (      35 calls)
     mix_rho      :      0.07s CPU      0.06s WALL (      28 calls)

     Called by c_bands:
     init_us_2    :      0.33s CPU      0.17s WALL (    1349 calls)
     cegterg      :     10.13s CPU      5.22s WALL (     532 calls)

     Called by *egterg:
     cdiaghg      :      0.40s CPU      0.21s WALL (    2360 calls)
     h_psi        :      8.52s CPU      4.40s WALL (    2474 calls)
     s_psi        :      0.11s CPU      0.06s WALL (    2474 calls)
     g_psi        :      0.08s CPU      0.04s WALL (    1904 calls)

     Called by h_psi:
     h_psi:calbec :      0.38s CPU      0.20s WALL (    2474 calls)
     vloc_psi     :      7.97s CPU      4.11s WALL (    2474 calls)
                                        0.00s GPU  (    2474 calls)
     add_vuspsi   :      0.14s CPU      0.07s WALL (    2474 calls)

     General routines
     calbec       :      0.72s CPU      0.37s WALL (    4678 calls)
     fft          :      0.94s CPU      0.92s WALL (     535 calls)
     ffts         :      0.18s CPU      0.18s WALL (      60 calls)
     fftw         :      8.30s CPU      4.29s WALL (   29984 calls)
     interpolate  :      0.21s CPU      0.21s WALL (      32 calls)

     Parallel routines

     PWSCF        :     19.75s CPU     12.09s WALL


   This run was terminated on:   4: 4:52   5Sep2026            

=------------------------------------------------------------------------------=
   JOB DONE.
=------------------------------------------------------------------------------=
